LengthSchedulingHorizon=2262;
nAttributes=2;
SetupCosts=[[0, 0], [22, 25], [25, 22]];
SetupTimes=[[0, 0], [20, 0], [0, 2]];
nMachines=5;
MinCap=[0, 0, 0, 0, 0];
MaxCap=[20, 20, 20, 20, 20];

initState=[2, 1, 1, 1, 1];
nShifts=4;
ShiftStartTimes = [[253, 322, 900, 1232], [0, 0, 249, 2103], [0, 0, 382, 634], [0, 0, 0, 385], [0, 379, 1713, 2181]];
ShiftEndTimes = [[321, 767, 1167, 2233], [0, 0, 2051, 2260], [0, 0, 587, 1863], [0, 0, 0, 2083], [0, 1397, 2069, 2252]];
nJobs=25;
EligibleMachines = [{4}, {1, 2, 3, 4, 5}, {4, 5}, {2, 4, 5}, {2, 4, 5}, {3, 5}, {1, 2, 4, 5}, {2, 3, 4}, {3, 5}, {1, 4, 5}, {1, 5}, {1, 3, 4, 5}, {2, 3, 4, 5}, {2, 3, 5}, {2, 3, 5}, {2, 3, 5}, {1, 3, 5}, {2, 3, 4, 5}, {2, 3}, {3, 4, 5}, {1, 2, 3, 4}, {1, 5}, {1, 2, 3, 5}, {2, 3, 5}, {1, 3, 4}];
EarliestStart=[27, 105, 105, 111, 23, 19, 30, 30, 12, 72, 41, 15, 89, 0, 50, 78, 13, 31, 78, 43, 56, 9, 106, 22, 71];
LatestEnd=[57, 213, 458, 126, 139, 109, 109, 36, 210, 102, 220, 177, 146, 93, 228, 101, 208, 273, 140, 152, 169, 212, 173, 265, 460];
MinTime=[19, 37, 77, 4, 49, 25, 73, 5, 61, 22, 50, 76, 31, 29, 51, 7, 67, 87, 23, 59, 27, 41, 35, 69, 89];
MaxTime=[100, 100, 100, 100, 100, 100, 100, 100, 100, 100, 100, 100, 100, 100, 100, 100, 100, 100, 100, 100, 100, 100, 100, 100, 100];
JobSize=[5, 4, 3, 8, 2, 4, 4, 7, 16, 5, 5, 18, 19, 20, 8, 17, 2, 7, 18, 1, 10, 6, 19, 12, 16];
Attribute=[1, 2, 1, 1, 2, 1, 2, 1, 2, 2, 1, 2, 1, 1, 1, 2, 2, 2, 1, 2, 2, 1, 2, 1, 2];

upper_bound_integer_objective=2362500;
mult_factor_total_runtime=80;
mult_factor_finished_toolate=90000;
mult_factor_total_setuptimes=0;
mult_factor_total_setupcosts=36;
running_time_bound=1113;
min_duration=4;
max_duration=89;
max_setup_time=20;
max_setup_cost=25;
